13000 12
529 1.2 351
1560 0.5 360
1231 0.9 294
1331 0.7 209
310 0.9 206
1310 0.8 124
1345 0.9 386
1554 1.2 342
1302 0.9 214
936 0.8 387
742 0.4 351
553 0.5 272
1364 0.8 182
294 0.4 117
1169 0.7 237
910 0.6 197
1635 1.1 182
1337 1.0 209
909 1.2 134
930 0.7 105
736 0.4 104
1258 0.7 313
292 1.2 222
1428 0.5 259
542 1.1 275
127 0.5 321
963 0.6 257
1189 1.1 200
201 0.7 282
1334 0.6 157